c This is QMaxSAT 2017 based on 14.07
c This is Glucose 3.0
c This is MiniSat 2.2.0
c WARNING: for repeatability, setting FPU to use double precision
c card = mrwto, comp = 0, pmodel = 0, narr = 9, mct = 52, verb = 0
cr firstCPXsol 0 0 0
c top = 1525567
c |  Number of variables:    154386                                           |
c |  Number of clauses:      170404737                                        |
c |  Weight of hard clauses: 1525567                                          |
c |  Number of soft clauses: 23868                                            |
c |  Number of unit soft clauses: 23868                                       |
c |  Maximum Cardinality (by unit): 13730094     (13730094    )               |
c last restart ## conflicts  :  0 3113 
o 3956 | cpuTime 15.8958 s
c Sum of weights = 1525566
c A number of soft clauses remained = 2652
c MRWTO encoding for Pseudo-Boolean Constraints
c sizeMax=3956
c No.0 Divisor=16	generated by pow1
c No.1 Divisor=16	generated by pow1
c No.2 Divisor=16	generated by pow1
c p0= 16	p1= 16	p2= 16	
c number of digits = 4
c linkingVar[0].size = 16, linkingVar[1].size = 16, linkingVar[2].size = 16, linkingVar[3].size = 1, 
c Pseudo-Boolean Constraints: 77974 variables and 991192 clauses
c Sum of weights = 1525566
c A number of soft clauses remained = 2652
c MRWTO encoding for Pseudo-Boolean Constraints
c sizeMax=3956
c No.0 Divisor=16	generated by pow1
c No.1 Divisor=16	generated by pow1
c No.2 Divisor=16	generated by pow1
c p0= 16	p1= 16	p2= 16	
c number of digits = 4
c linkingVar[0].size = 16, linkingVar[1].size = 16, linkingVar[2].size = 16, linkingVar[3].size = 1, 
c Pseudo-Boolean Constraints: 77974 variables and 991192 clauses
c Sum of weights = 1525566
c A number of soft clauses remained = 2652
c MRWTO encoding for Pseudo-Boolean Constraints
c sizeMax=3956
c No.0 Divisor=16	generated by pow1
c No.1 Divisor=16	generated by pow1
c No.2 Divisor=16	generated by pow1
c p0= 16	p1= 16	p2= 16	
c number of digits = 4
c linkingVar[0].size = 16, linkingVar[1].size = 16, linkingVar[2].size = 16, linkingVar[3].size = 1, 
c Pseudo-Boolean Constraints: 77974 variables and 991192 clauses
c Sum of weights = 1525566
c A number of soft clauses remained = 2652
c MRWTO encoding for Pseudo-Boolean Constraints
c sizeMax=3956
c No.0 Divisor=16	generated by pow1
c No.1 Divisor=16	generated by pow1
c No.2 Divisor=16	generated by pow1
c p0= 16	p1= 16	p2= 16	
c number of digits = 4
c linkingVar[0].size = 16, linkingVar[1].size = 16, linkingVar[2].size = 16, linkingVar[3].size = 1, 
c Pseudo-Boolean Constraints: 77974 variables and 991192 clauses
c Sum of weights = 1525566
c A number of soft clauses remained = 2652
c MRWTO encoding for Pseudo-Boolean Constraints
c sizeMax=3956
c No.0 Divisor=16	generated by pow1
c No.1 Divisor=16	generated by pow1
c No.2 Divisor=16	generated by pow1
c p0= 16	p1= 16	p2= 16	
c number of digits = 4
c linkingVar[0].size = 16, linkingVar[1].size = 16, linkingVar[2].size = 16, linkingVar[3].size = 1, 
c Pseudo-Boolean Constraints: 77974 variables and 991192 clauses
c Sum of weights = 1525566
c A number of soft clauses remained = 2652
c MRWTO encoding for Pseudo-Boolean Constraints
c sizeMax=3956
c No.0 Divisor=16	generated by pow1
c No.1 Divisor=16	generated by pow1
c No.2 Divisor=16	generated by pow1
c p0= 16	p1= 16	p2= 16	
c number of digits = 4
c linkingVar[0].size = 16, linkingVar[1].size = 16, linkingVar[2].size = 16, linkingVar[3].size = 1, 
c Pseudo-Boolean Constraints: 77974 variables and 991192 clauses
c Sum of weights = 1525566
c A number of soft clauses remained = 2652
c MRWTO encoding for Pseudo-Boolean Constraints
c sizeMax=3956
c No.0 Divisor=16	generated by pow1
c No.1 Divisor=16	generated by pow1
c No.2 Divisor=16	generated by pow1
c p0= 16	p1= 16	p2= 16	
c number of digits = 4
c linkingVar[0].size = 16, linkingVar[1].size = 16, linkingVar[2].size = 16, linkingVar[3].size = 1, 
c Pseudo-Boolean Constraints: 77974 variables and 991192 clauses
c Sum of weights = 1525566
c A number of soft clauses remained = 2652
c MRWTO encoding for Pseudo-Boolean Constraints
c sizeMax=3956
c No.0 Divisor=16	generated by pow1
c No.1 Divisor=16	generated by pow1
c No.2 Divisor=16	generated by pow1
c p0= 16	p1= 16	p2= 16	
c number of digits = 4
c linkingVar[0].size = 16, linkingVar[1].size = 16, linkingVar[2].size = 16, linkingVar[3].size = 1, 
c Pseudo-Boolean Constraints: 77974 variables and 991192 clauses
c Sum of weights = 1525566
c A number of soft clauses remained = 2652
c MRWTO encoding for Pseudo-Boolean Constraints
c sizeMax=3956
c No.0 Divisor=16	generated by pow1
c No.1 Divisor=16	generated by pow1
c No.2 Divisor=16	generated by pow1
c p0= 16	p1= 16	p2= 16	
c number of digits = 4
c linkingVar[0].size = 16, linkingVar[1].size = 16, linkingVar[2].size = 16, linkingVar[3].size = 1, 
c Pseudo-Boolean Constraints: 77974 variables and 991192 clauses
c last restart ## conflicts  :  68 42143 
o 3949 | cpuTime 18.0819 s
s UNKNOWN
c Search is stopped by a limit (maybe time-limit)
cr positiVarArr: [ | 2@1(1->2) | 55@1(2->3) | 108@1(3->4) | 161@1(4->5) | 214@1(5->6) | 310@1(6->50) | 2549@1(50->1) | 2711@2(1->7) | 3024@2(7->8) | 3077@2(8->9) | 3130@2(9->10) | 3183@2(10->11) | 3225@2(11->1) | 5420@3(1->12) | 5993@3(12->13) | 6046@3(13->14) | 6099@3(14->15) | 6152@3(15->16) | 6189@3(16->1) | 8129@4(1->17) | 8962@4(17->18) | 9015@4(18->19) | 9068@4(19->20) | 9121@4(20->21) | 9203@4(21->51) | 10713@4(51->1) | 10838@5(1->22) | 11931@5(22->23) | 11984@5(23->24) | 12037@5(24->25) | 12090@5(25->26) | 12163@5(26->47) | 13209@5(47->1) | 13547@6(1->27) | 14900@6(27->28) | 14959@6(28->35) | 15006@6(29->30) | 15059@6(30->31) | 15114@6(31->34) | 15237@6(34->1) | 15317@6(35->29) | 16256@7(1->32) | 17869@7(32->33) | 17924@7(33->36) | 18096@7(36->52) | 18877@7(52->1) | 18965@8(1->37) | 20838@8(37->38) | 20891@8(38->39) | 20944@8(39->40) | 20997@8(40->41) | 21057@8(41->49) | 21425@8(49->1) | 21674@9(1->42) | 23807@9(42->43) | 23860@9(43->44) | 23913@9(44->45) | 23966@9(45->46) | 24020@9(46->48) | 24077@9(48->1) | ]
cr the 1-th chain: [ 1->2->3->4->5->6->50->1 ] (#non-depot=6) {#cumul.=7}
cr the 2-th chain: [ 1->7->8->9->10->11->1 ] (#non-depot=5) {#cumul.=12}
cr the 3-th chain: [ 1->12->13->14->15->16->1 ] (#non-depot=5) {#cumul.=17}
cr the 4-th chain: [ 1->17->18->19->20->21->51->1 ] (#non-depot=6) {#cumul.=23}
cr the 5-th chain: [ 1->22->23->24->25->26->47->1 ] (#non-depot=6) {#cumul.=29}
cr the 6-th chain: [ 1->27->28->35->29->30->31->34->1 ] (#non-depot=7) {#cumul.=36}
cr the 7-th chain: [ 1->32->33->36->52->1 ] (#non-depot=4) {#cumul.=40}
cr the 8-th chain: [ 1->37->38->39->40->41->49->1 ] (#non-depot=6) {#cumul.=46}
cr the 9-th chain: [ 1->42->43->44->45->46->48->1 ] (#non-depot=6) {#cumul.=52}
c Latest Answer = 0 by 2 loops
c restarts              : 8502
c conflicts             : 2287883        (638 /sec)
c decisions             : 96942216       (0.00 % random) (27050 /sec)
c propagations          : 19923336407    (5559242 /sec)
c conflict literals     : 2713218757     (21.83 % deleted)
c Memory used           : 14455.00 MB
c CPU time              : 3583.82 s
